WARNING: for repeatability, setting FPU to use double precision
============================[ Problem Statistics ]=============================
|                                                                             |
|  Number of variables:            50                                         |
|  Number of clauses:             218                                         |
|  Parse time:                   0.00 s                                       |
|                                                                             |
============================[ Search Statistics ]==============================
| Conflicts |          ORIGINAL         |          LEARNT          | Progress |
|           |    Vars  Clauses Literals |    Limit  Clauses Lit/Cl |          |
===============================================================================
===============================================================================
restarts              : 1
conflicts             : 51             (324841 /sec)
decisions             : 61             (0.00 % random) (388535 /sec)
propagations          : 680            (4331210 /sec)
conflict literals     : 171            (20.83 % deleted)
Memory used           : 20.00 MB
CPU time              : 0.000157 s

UNSATISFIABLE
